NAME           C:\Bruker\Hvattum\knapsack\Problems\class1\100-5-08.mps
ROWS
 N  OBJ
 L  CONSTR1
 L  CONSTR2
 L  CONSTR3
 L  CONSTR4
 L  CONSTR5
COLUMNS
    INT0001   'MARKER'  'INTORG'
    X1        OBJ       607
    X1        CONSTR1   461
    X1        CONSTR2   878
    X1        CONSTR3   85
    X1        CONSTR4   733
    X1        CONSTR5   872
    X2        OBJ       401
    X2        CONSTR1   496
    X2        CONSTR2   88
    X2        CONSTR3   417
    X2        CONSTR4   61
    X2        CONSTR5   905
    X3        OBJ       645
    X3        CONSTR1   567
    X3        CONSTR2   752
    X3        CONSTR3   457
    X3        CONSTR4   77
    X3        CONSTR5   488
    X4        OBJ       907
    X4        CONSTR1   403
    X4        CONSTR2   381
    X4        CONSTR3   716
    X4        CONSTR4   587
    X4        CONSTR5   890
    X5        OBJ       915
    X5        CONSTR1   773
    X5        CONSTR2   827
    X5        CONSTR3   781
    X5        CONSTR4   539
    X5        CONSTR5   694
    X6        OBJ       499
    X6        CONSTR1   652
    X6        CONSTR2   407
    X6        CONSTR3   479
    X6        CONSTR4   80
    X6        CONSTR5   548
    X7        OBJ       914
    X7        CONSTR1   653
    X7        CONSTR2   993
    X7        CONSTR3   665
    X7        CONSTR4   41
    X7        CONSTR5   252
    X8        OBJ       879
    X8        CONSTR1   794
    X8        CONSTR2   320
    X8        CONSTR3   763
    X8        CONSTR4   763
    X8        CONSTR5   540
    X9        OBJ       757
    X9        CONSTR1   336
    X9        CONSTR2   763
    X9        CONSTR3   690
    X9        CONSTR4   444
    X9        CONSTR5   711
    X10       OBJ       978
    X10       CONSTR1   899
    X10       CONSTR2   987
    X10       CONSTR3   620
    X10       CONSTR4   215
    X10       CONSTR5   726
    X11       OBJ       608
    X11       CONSTR1   104
    X11       CONSTR2   252
    X11       CONSTR3   783
    X11       CONSTR4   179
    X11       CONSTR5   973
    X12       OBJ       548
    X12       CONSTR1   871
    X12       CONSTR2   601
    X12       CONSTR3   252
    X12       CONSTR4   98
    X12       CONSTR5   575
    X13       OBJ       470
    X13       CONSTR1   445
    X13       CONSTR2   188
    X13       CONSTR3   277
    X13       CONSTR4   411
    X13       CONSTR5   555
    X14       OBJ       1167
    X14       CONSTR1   393
    X14       CONSTR2   981
    X14       CONSTR3   833
    X14       CONSTR4   567
    X14       CONSTR5   757
    X15       OBJ       1017
    X15       CONSTR1   390
    X15       CONSTR2   531
    X15       CONSTR3   414
    X15       CONSTR4   851
    X15       CONSTR5   669
    X16       OBJ       699
    X16       CONSTR1   149
    X16       CONSTR2   166
    X16       CONSTR3   500
    X16       CONSTR4   537
    X16       CONSTR5   754
    X17       OBJ       942
    X17       CONSTR1   371
    X17       CONSTR2   465
    X17       CONSTR3   65
    X17       CONSTR4   637
    X17       CONSTR5   919
    X18       OBJ       547
    X18       CONSTR1   35
    X18       CONSTR2   797
    X18       CONSTR3   956
    X18       CONSTR4   367
    X18       CONSTR5   141
    X19       OBJ       986
    X19       CONSTR1   844
    X19       CONSTR2   773
    X19       CONSTR3   244
    X19       CONSTR4   170
    X19       CONSTR5   723
    X20       OBJ       875
    X20       CONSTR1   840
    X20       CONSTR2   258
    X20       CONSTR3   297
    X20       CONSTR4   283
    X20       CONSTR5   901
    X21       OBJ       876
    X21       CONSTR1   136
    X21       CONSTR2   953
    X21       CONSTR3   304
    X21       CONSTR4   237
    X21       CONSTR5   497
    X22       OBJ       658
    X22       CONSTR1   224
    X22       CONSTR2   796
    X22       CONSTR3   134
    X22       CONSTR4   229
    X22       CONSTR5   172
    X23       OBJ       461
    X23       CONSTR1   665
    X23       CONSTR2   881
    X23       CONSTR3   41
    X23       CONSTR4   131
    X23       CONSTR5   28
    X24       OBJ       546
    X24       CONSTR1   27
    X24       CONSTR2   176
    X24       CONSTR3   782
    X24       CONSTR4   472
    X24       CONSTR5   756
    X25       OBJ       866
    X25       CONSTR1   683
    X25       CONSTR2   997
    X25       CONSTR3   12
    X25       CONSTR4   273
    X25       CONSTR5   406
    X26       OBJ       664
    X26       CONSTR1   711
    X26       CONSTR2   804
    X26       CONSTR3   78
    X26       CONSTR4   432
    X26       CONSTR5   359
    X27       OBJ       649
    X27       CONSTR1   465
    X27       CONSTR2   66
    X27       CONSTR3   878
    X27       CONSTR4   204
    X27       CONSTR5   90
    X28       OBJ       1125
    X28       CONSTR1   486
    X28       CONSTR2   483
    X28       CONSTR3   943
    X28       CONSTR4   888
    X28       CONSTR5   989
    X29       OBJ       362
    X29       CONSTR1   170
    X29       CONSTR2   139
    X29       CONSTR3   608
    X29       CONSTR4   425
    X29       CONSTR5   291
    X30       OBJ       941
    X30       CONSTR1   616
    X30       CONSTR2   457
    X30       CONSTR3   544
    X30       CONSTR4   25
    X30       CONSTR5   575
    X31       OBJ       817
    X31       CONSTR1   86
    X31       CONSTR2   409
    X31       CONSTR3   861
    X31       CONSTR4   675
    X31       CONSTR5   880
    X32       OBJ       1064
    X32       CONSTR1   154
    X32       CONSTR2   955
    X32       CONSTR3   836
    X32       CONSTR4   592
    X32       CONSTR5   376
    X33       OBJ       908
    X33       CONSTR1   378
    X33       CONSTR2   77
    X33       CONSTR3   930
    X33       CONSTR4   650
    X33       CONSTR5   798
    X34       OBJ       586
    X34       CONSTR1   476
    X34       CONSTR2   948
    X34       CONSTR3   299
    X34       CONSTR4   113
    X34       CONSTR5   689
    X35       OBJ       774
    X35       CONSTR1   614
    X35       CONSTR2   790
    X35       CONSTR3   868
    X35       CONSTR4   329
    X35       CONSTR5   273
    X36       OBJ       796
    X36       CONSTR1   604
    X36       CONSTR2   519
    X36       CONSTR3   29
    X36       CONSTR4   494
    X36       CONSTR5   889
    X37       OBJ       762
    X37       CONSTR1   578
    X37       CONSTR2   474
    X37       CONSTR3   279
    X37       CONSTR4   215
    X37       CONSTR5   979
    X38       OBJ       605
    X38       CONSTR1   116
    X38       CONSTR2   315
    X38       CONSTR3   516
    X38       CONSTR4   329
    X38       CONSTR5   704
    X39       OBJ       643
    X39       CONSTR1   303
    X39       CONSTR2   876
    X39       CONSTR3   369
    X39       CONSTR4   752
    X39       CONSTR5   676
    X40       OBJ       661
    X40       CONSTR1   930
    X40       CONSTR2   534
    X40       CONSTR3   66
    X40       CONSTR4   220
    X40       CONSTR5   254
    X41       OBJ       752
    X41       CONSTR1   79
    X41       CONSTR2   768
    X41       CONSTR3   12
    X41       CONSTR4   874
    X41       CONSTR5   629
    X42       OBJ       730
    X42       CONSTR1   19
    X42       CONSTR2   962
    X42       CONSTR3   813
    X42       CONSTR4   491
    X42       CONSTR5   123
    X43       OBJ       893
    X43       CONSTR1   651
    X43       CONSTR2   303
    X43       CONSTR3   740
    X43       CONSTR4   164
    X43       CONSTR5   408
    X44       OBJ       742
    X44       CONSTR1   329
    X44       CONSTR2   43
    X44       CONSTR3   455
    X44       CONSTR4   830
    X44       CONSTR5   489
    X45       OBJ       884
    X45       CONSTR1   726
    X45       CONSTR2   509
    X45       CONSTR3   589
    X45       CONSTR4   942
    X45       CONSTR5   226
    X46       OBJ       611
    X46       CONSTR1   426
    X46       CONSTR2   383
    X46       CONSTR3   166
    X46       CONSTR4   588
    X46       CONSTR5   54
    X47       OBJ       922
    X47       CONSTR1   332
    X47       CONSTR2   318
    X47       CONSTR3   768
    X47       CONSTR4   818
    X47       CONSTR5   750
    X48       OBJ       953
    X48       CONSTR1   450
    X48       CONSTR2   67
    X48       CONSTR3   969
    X48       CONSTR4   587
    X48       CONSTR5   277
    X49       OBJ       360
    X49       CONSTR1   731
    X49       CONSTR2   539
    X49       CONSTR3   192
    X49       CONSTR4   60
    X49       CONSTR5   29
    X50       OBJ       918
    X50       CONSTR1   463
    X50       CONSTR2   289
    X50       CONSTR3   751
    X50       CONSTR4   766
    X50       CONSTR5   905
    X51       OBJ       770
    X51       CONSTR1   5
    X51       CONSTR2   953
    X51       CONSTR3   760
    X51       CONSTR4   802
    X51       CONSTR5   267
    X52       OBJ       946
    X52       CONSTR1   680
    X52       CONSTR2   464
    X52       CONSTR3   548
    X52       CONSTR4   894
    X52       CONSTR5   632
    X53       OBJ       913
    X53       CONSTR1   851
    X53       CONSTR2   45
    X53       CONSTR3   207
    X53       CONSTR4   887
    X53       CONSTR5   290
    X54       OBJ       523
    X54       CONSTR1   380
    X54       CONSTR2   70
    X54       CONSTR3   763
    X54       CONSTR4   46
    X54       CONSTR5   51
    X55       OBJ       440
    X55       CONSTR1   238
    X55       CONSTR2   457
    X55       CONSTR3   401
    X55       CONSTR4   598
    X55       CONSTR5   35
    X56       OBJ       636
    X56       CONSTR1   411
    X56       CONSTR2   820
    X56       CONSTR3   32
    X56       CONSTR4   249
    X56       CONSTR5   149
    X57       OBJ       859
    X57       CONSTR1   868
    X57       CONSTR2   411
    X57       CONSTR3   544
    X57       CONSTR4   984
    X57       CONSTR5   28
    X58       OBJ       968
    X58       CONSTR1   953
    X58       CONSTR2   727
    X58       CONSTR3   581
    X58       CONSTR4   491
    X58       CONSTR5   692
    X59       OBJ       313
    X59       CONSTR1   109
    X59       CONSTR2   441
    X59       CONSTR3   19
    X59       CONSTR4   376
    X59       CONSTR5   93
    X60       OBJ       1114
    X60       CONSTR1   770
    X60       CONSTR2   364
    X60       CONSTR3   647
    X60       CONSTR4   606
    X60       CONSTR5   686
    X61       OBJ       792
    X61       CONSTR1   968
    X61       CONSTR2   818
    X61       CONSTR3   229
    X61       CONSTR4   720
    X61       CONSTR5   414
    X62       OBJ       800
    X62       CONSTR1   297
    X62       CONSTR2   828
    X62       CONSTR3   678
    X62       CONSTR4   913
    X62       CONSTR5   285
    X63       OBJ       780
    X63       CONSTR1   413
    X63       CONSTR2   9
    X63       CONSTR3   782
    X63       CONSTR4   302
    X63       CONSTR5   920
    X64       OBJ       817
    X64       CONSTR1   402
    X64       CONSTR2   593
    X64       CONSTR3   767
    X64       CONSTR4   965
    X64       CONSTR5   636
    X65       OBJ       1108
    X65       CONSTR1   923
    X65       CONSTR2   440
    X65       CONSTR3   642
    X65       CONSTR4   793
    X65       CONSTR5   748
    X66       OBJ       1038
    X66       CONSTR1   453
    X66       CONSTR2   759
    X66       CONSTR3   966
    X66       CONSTR4   49
    X66       CONSTR5   625
    X67       OBJ       655
    X67       CONSTR1   720
    X67       CONSTR2   157
    X67       CONSTR3   951
    X67       CONSTR4   764
    X67       CONSTR5   8
    X68       OBJ       697
    X68       CONSTR1   9
    X68       CONSTR2   760
    X68       CONSTR3   584
    X68       CONSTR4   669
    X68       CONSTR5   382
    X69       OBJ       700
    X69       CONSTR1   819
    X69       CONSTR2   338
    X69       CONSTR3   41
    X69       CONSTR4   556
    X69       CONSTR5   599
    X70       OBJ       797
    X70       CONSTR1   67
    X70       CONSTR2   697
    X70       CONSTR3   382
    X70       CONSTR4   265
    X70       CONSTR5   407
    X71       OBJ       1030
    X71       CONSTR1   459
    X71       CONSTR2   511
    X71       CONSTR3   999
    X71       CONSTR4   885
    X71       CONSTR5   400
    X72       OBJ       753
    X72       CONSTR1   320
    X72       CONSTR2   365
    X72       CONSTR3   956
    X72       CONSTR4   387
    X72       CONSTR5   483
    X73       OBJ       591
    X73       CONSTR1   984
    X73       CONSTR2   54
    X73       CONSTR3   231
    X73       CONSTR4   464
    X73       CONSTR5   818
    X74       OBJ       936
    X74       CONSTR1   676
    X74       CONSTR2   934
    X74       CONSTR3   303
    X74       CONSTR4   930
    X74       CONSTR5   598
    X75       OBJ       634
    X75       CONSTR1   198
    X75       CONSTR2   577
    X75       CONSTR3   992
    X75       CONSTR4   425
    X75       CONSTR5   591
    X76       OBJ       712
    X76       CONSTR1   660
    X76       CONSTR2   425
    X76       CONSTR3   1
    X76       CONSTR4   636
    X76       CONSTR5   656
    X77       OBJ       581
    X77       CONSTR1   279
    X77       CONSTR2   319
    X77       CONSTR3   165
    X77       CONSTR4   431
    X77       CONSTR5   575
    X78       OBJ       827
    X78       CONSTR1   80
    X78       CONSTR2   530
    X78       CONSTR3   269
    X78       CONSTR4   254
    X78       CONSTR5   560
    X79       OBJ       434
    X79       CONSTR1   808
    X79       CONSTR2   904
    X79       CONSTR3   159
    X79       CONSTR4   5
    X79       CONSTR5   123
    X80       OBJ       686
    X80       CONSTR1   540
    X80       CONSTR2   288
    X80       CONSTR3   105
    X80       CONSTR4   282
    X80       CONSTR5   624
    X81       OBJ       759
    X81       CONSTR1   763
    X81       CONSTR2   884
    X81       CONSTR3   558
    X81       CONSTR4   321
    X81       CONSTR5   840
    X82       OBJ       772
    X82       CONSTR1   386
    X82       CONSTR2   312
    X82       CONSTR3   832
    X82       CONSTR4   925
    X82       CONSTR5   146
    X83       OBJ       871
    X83       CONSTR1   941
    X83       CONSTR2   177
    X83       CONSTR3   367
    X83       CONSTR4   990
    X83       CONSTR5   22
    X84       OBJ       643
    X84       CONSTR1   232
    X84       CONSTR2   425
    X84       CONSTR3   716
    X84       CONSTR4   504
    X84       CONSTR5   222
    X85       OBJ       759
    X85       CONSTR1   126
    X85       CONSTR2   320
    X85       CONSTR3   851
    X85       CONSTR4   84
    X85       CONSTR5   687
    X86       OBJ       623
    X86       CONSTR1   51
    X86       CONSTR2   342
    X86       CONSTR3   929
    X86       CONSTR4   980
    X86       CONSTR5   81
    X87       OBJ       605
    X87       CONSTR1   183
    X87       CONSTR2   165
    X87       CONSTR3   364
    X87       CONSTR4   323
    X87       CONSTR5   731
    X88       OBJ       934
    X88       CONSTR1   901
    X88       CONSTR2   996
    X88       CONSTR3   418
    X88       CONSTR4   262
    X88       CONSTR5   283
    X89       OBJ       697
    X89       CONSTR1   467
    X89       CONSTR2   983
    X89       CONSTR3   297
    X89       CONSTR4   371
    X89       CONSTR5   685
    X90       OBJ       534
    X90       CONSTR1   207
    X90       CONSTR2   882
    X90       CONSTR3   447
    X90       CONSTR4   764
    X90       CONSTR5   211
    X91       OBJ       1029
    X91       CONSTR1   861
    X91       CONSTR2   252
    X91       CONSTR3   170
    X91       CONSTR4   598
    X91       CONSTR5   839
    X92       OBJ       650
    X92       CONSTR1   387
    X92       CONSTR2   549
    X92       CONSTR3   610
    X92       CONSTR4   362
    X92       CONSTR5   529
    X93       OBJ       961
    X93       CONSTR1   779
    X93       CONSTR2   749
    X93       CONSTR3   341
    X93       CONSTR4   562
    X93       CONSTR5   603
    X94       OBJ       509
    X94       CONSTR1   362
    X94       CONSTR2   115
    X94       CONSTR3   548
    X94       CONSTR4   811
    X94       CONSTR5   120
    X95       OBJ       652
    X95       CONSTR1   22
    X95       CONSTR2   2
    X95       CONSTR3   897
    X95       CONSTR4   104
    X95       CONSTR5   23
    X96       OBJ       571
    X96       CONSTR1   618
    X96       CONSTR2   91
    X96       CONSTR3   761
    X96       CONSTR4   884
    X96       CONSTR5   387
    X97       OBJ       420
    X97       CONSTR1   345
    X97       CONSTR2   86
    X97       CONSTR3   540
    X97       CONSTR4   330
    X97       CONSTR5   154
    X98       OBJ       673
    X98       CONSTR1   433
    X98       CONSTR2   744
    X98       CONSTR3   235
    X98       CONSTR4   958
    X98       CONSTR5   984
    X99       OBJ       734
    X99       CONSTR1   4
    X99       CONSTR2   412
    X99       CONSTR3   577
    X99       CONSTR4   295
    X99       CONSTR5   589
    X100      OBJ       735
    X100      CONSTR1   288
    X100      CONSTR2   887
    X100      CONSTR3   963
    X100      CONSTR4   96
    X100      CONSTR5   211
    INT0001   'MARKER'  'INTEND'
RHS
    RHS10001  CONSTR1   11700
    RHS10001  CONSTR2   12917
    RHS10001  CONSTR3   12813
    RHS10001  CONSTR4   12149
    RHS10001  CONSTR5   12472
BOUNDS
 BV BND       X1        .00
 BV BND       X2        .00
 BV BND       X3        .00
 BV BND       X4        .00
 BV BND       X5        .00
 BV BND       X6        .00
 BV BND       X7        .00
 BV BND       X8        .00
 BV BND       X9        .00
 BV BND       X10       .00
 BV BND       X11       .00
 BV BND       X12       .00
 BV BND       X13       .00
 BV BND       X14       .00
 BV BND       X15       .00
 BV BND       X16       .00
 BV BND       X17       .00
 BV BND       X18       .00
 BV BND       X19       .00
 BV BND       X20       .00
 BV BND       X21       .00
 BV BND       X22       .00
 BV BND       X23       .00
 BV BND       X24       .00
 BV BND       X25       .00
 BV BND       X26       .00
 BV BND       X27       .00
 BV BND       X28       .00
 BV BND       X29       .00
 BV BND       X30       .00
 BV BND       X31       .00
 BV BND       X32       .00
 BV BND       X33       .00
 BV BND       X34       .00
 BV BND       X35       .00
 BV BND       X36       .00
 BV BND       X37       .00
 BV BND       X38       .00
 BV BND       X39       .00
 BV BND       X40       .00
 BV BND       X41       .00
 BV BND       X42       .00
 BV BND       X43       .00
 BV BND       X44       .00
 BV BND       X45       .00
 BV BND       X46       .00
 BV BND       X47       .00
 BV BND       X48       .00
 BV BND       X49       .00
 BV BND       X50       .00
 BV BND       X51       .00
 BV BND       X52       .00
 BV BND       X53       .00
 BV BND       X54       .00
 BV BND       X55       .00
 BV BND       X56       .00
 BV BND       X57       .00
 BV BND       X58       .00
 BV BND       X59       .00
 BV BND       X60       .00
 BV BND       X61       .00
 BV BND       X62       .00
 BV BND       X63       .00
 BV BND       X64       .00
 BV BND       X65       .00
 BV BND       X66       .00
 BV BND       X67       .00
 BV BND       X68       .00
 BV BND       X69       .00
 BV BND       X70       .00
 BV BND       X71       .00
 BV BND       X72       .00
 BV BND       X73       .00
 BV BND       X74       .00
 BV BND       X75       .00
 BV BND       X76       .00
 BV BND       X77       .00
 BV BND       X78       .00
 BV BND       X79       .00
 BV BND       X80       .00
 BV BND       X81       .00
 BV BND       X82       .00
 BV BND       X83       .00
 BV BND       X84       .00
 BV BND       X85       .00
 BV BND       X86       .00
 BV BND       X87       .00
 BV BND       X88       .00
 BV BND       X89       .00
 BV BND       X90       .00
 BV BND       X91       .00
 BV BND       X92       .00
 BV BND       X93       .00
 BV BND       X94       .00
 BV BND       X95       .00
 BV BND       X96       .00
 BV BND       X97       .00
 BV BND       X98       .00
 BV BND       X99       .00
 BV BND       X100      .00
ENDATA
